% Auto-generated by scripts/generate_dzn.py
% problem_type   = nonogram
% instance       = nonogram_27
% source_json    = instances_json/0_low_blowup/nonogram_27.json
% blowup         = 1.0932835820895523
% representation = DFA

mode = 0;

height = 10;
width = 15;
Q = 16;
S = 2;
row_q0 = [1, 1, 1, 1, 1, 1, 1, 1, 1, 1];
row_F = [{13}, {11}, {13}, {15}, {15}, {12}, {13}, {13}, {11}, {12}];
col_q0 = [1, 1, 1, 1, 1, 1, 1, 1, 1, 1, 1, 1, 1, 1, 1];
col_F = [{9}, {8}, {7}, {10}, {10}, {8}, {11}, {11}, {10}, {9}, {11}, {11}, {8}, {9}, {8}];
row_d_dfa = array3d(1..10, 1..16, 1..2, [
  % k = 1
    1, 2,
    3, 14,
    3, 4,
    14, 5,
    6, 14,
    6, 7,
    14, 8,
    9, 14,
    9, 10,
    14, 11,
    12, 14,
    12, 13,
    13, 14,
    14, 14,
    0, 0,
    0, 0,

  % k = 2
    1, 2,
    3, 12,
    3, 4,
    12, 5,
    12, 6,
    12, 7,
    12, 8,
    12, 9,
    12, 10,
    12, 11,
    11, 12,
    12, 12,
    0, 0,
    0, 0,
    0, 0,
    0, 0,

  % k = 3
    1, 2,
    3, 14,
    3, 4,
    14, 5,
    14, 6,
    7, 14,
    7, 8,
    9, 14,
    9, 10,
    14, 11,
    14, 12,
    14, 13,
    13, 14,
    14, 14,
    0, 0,
    0, 0,

  % k = 4
    1, 2,
    16, 3,
    4, 16,
    4, 5,
    16, 6,
    7, 16,
    7, 8,
    16, 9,
    16, 10,
    16, 11,
    16, 12,
    16, 13,
    16, 14,
    16, 15,
    15, 16,
    16, 16,

  % k = 5
    1, 2,
    16, 3,
    16, 4,
    16, 5,
    16, 6,
    7, 16,
    7, 8,
    16, 9,
    16, 10,
    16, 11,
    16, 12,
    13, 16,
    13, 14,
    16, 15,
    15, 16,
    16, 16,

  % k = 6
    1, 2,
    3, 13,
    3, 4,
    13, 5,
    13, 6,
    7, 13,
    7, 8,
    13, 9,
    13, 10,
    13, 11,
    13, 12,
    12, 13,
    13, 13,
    0, 0,
    0, 0,
    0, 0,

  % k = 7
    1, 2,
    14, 3,
    14, 4,
    14, 5,
    14, 6,
    7, 14,
    7, 8,
    14, 9,
    14, 10,
    14, 11,
    12, 14,
    12, 13,
    13, 14,
    14, 14,
    0, 0,
    0, 0,

  % k = 8
    1, 2,
    14, 3,
    14, 4,
    5, 14,
    5, 6,
    7, 14,
    7, 8,
    14, 9,
    14, 10,
    14, 11,
    14, 12,
    14, 13,
    13, 14,
    14, 14,
    0, 0,
    0, 0,

  % k = 9
    1, 2,
    3, 12,
    3, 4,
    5, 12,
    5, 6,
    12, 7,
    12, 8,
    12, 9,
    12, 10,
    12, 11,
    11, 12,
    12, 12,
    0, 0,
    0, 0,
    0, 0,
    0, 0,

  % k = 10
    1, 2,
    3, 13,
    3, 4,
    13, 5,
    13, 6,
    13, 7,
    8, 13,
    8, 9,
    13, 10,
    11, 13,
    11, 12,
    12, 13,
    13, 13,
    0, 0,
    0, 0,
    0, 0
]);
row_d_nfa = array3d(1..10, 1..16, 1..2, [
  % k = 1
    {}, {},
    {}, {},
    {}, {},
    {}, {},
    {}, {},
    {}, {},
    {}, {},
    {}, {},
    {}, {},
    {}, {},
    {}, {},
    {}, {},
    {}, {},
    {}, {},
    {}, {},
    {}, {},

  % k = 2
    {}, {},
    {}, {},
    {}, {},
    {}, {},
    {}, {},
    {}, {},
    {}, {},
    {}, {},
    {}, {},
    {}, {},
    {}, {},
    {}, {},
    {}, {},
    {}, {},
    {}, {},
    {}, {},

  % k = 3
    {}, {},
    {}, {},
    {}, {},
    {}, {},
    {}, {},
    {}, {},
    {}, {},
    {}, {},
    {}, {},
    {}, {},
    {}, {},
    {}, {},
    {}, {},
    {}, {},
    {}, {},
    {}, {},

  % k = 4
    {}, {},
    {}, {},
    {}, {},
    {}, {},
    {}, {},
    {}, {},
    {}, {},
    {}, {},
    {}, {},
    {}, {},
    {}, {},
    {}, {},
    {}, {},
    {}, {},
    {}, {},
    {}, {},

  % k = 5
    {}, {},
    {}, {},
    {}, {},
    {}, {},
    {}, {},
    {}, {},
    {}, {},
    {}, {},
    {}, {},
    {}, {},
    {}, {},
    {}, {},
    {}, {},
    {}, {},
    {}, {},
    {}, {},

  % k = 6
    {}, {},
    {}, {},
    {}, {},
    {}, {},
    {}, {},
    {}, {},
    {}, {},
    {}, {},
    {}, {},
    {}, {},
    {}, {},
    {}, {},
    {}, {},
    {}, {},
    {}, {},
    {}, {},

  % k = 7
    {}, {},
    {}, {},
    {}, {},
    {}, {},
    {}, {},
    {}, {},
    {}, {},
    {}, {},
    {}, {},
    {}, {},
    {}, {},
    {}, {},
    {}, {},
    {}, {},
    {}, {},
    {}, {},

  % k = 8
    {}, {},
    {}, {},
    {}, {},
    {}, {},
    {}, {},
    {}, {},
    {}, {},
    {}, {},
    {}, {},
    {}, {},
    {}, {},
    {}, {},
    {}, {},
    {}, {},
    {}, {},
    {}, {},

  % k = 9
    {}, {},
    {}, {},
    {}, {},
    {}, {},
    {}, {},
    {}, {},
    {}, {},
    {}, {},
    {}, {},
    {}, {},
    {}, {},
    {}, {},
    {}, {},
    {}, {},
    {}, {},
    {}, {},

  % k = 10
    {}, {},
    {}, {},
    {}, {},
    {}, {},
    {}, {},
    {}, {},
    {}, {},
    {}, {},
    {}, {},
    {}, {},
    {}, {},
    {}, {},
    {}, {},
    {}, {},
    {}, {},
    {}, {}
]);
col_d_dfa = array3d(1..15, 1..16, 1..2, [
  % k = 1
    1, 2,
    3, 10,
    3, 4,
    5, 10,
    5, 6,
    7, 10,
    7, 8,
    10, 9,
    9, 10,
    10, 10,
    0, 0,
    0, 0,
    0, 0,
    0, 0,
    0, 0,
    0, 0,

  % k = 2
    1, 2,
    3, 9,
    3, 4,
    9, 5,
    9, 6,
    9, 7,
    9, 8,
    8, 9,
    9, 9,
    0, 0,
    0, 0,
    0, 0,
    0, 0,
    0, 0,
    0, 0,
    0, 0,

  % k = 3
    1, 2,
    8, 3,
    8, 4,
    5, 8,
    5, 6,
    8, 7,
    7, 8,
    8, 8,
    0, 0,
    0, 0,
    0, 0,
    0, 0,
    0, 0,
    0, 0,
    0, 0,
    0, 0,

  % k = 4
    1, 2,
    3, 11,
    3, 4,
    5, 11,
    5, 6,
    7, 11,
    7, 8,
    9, 11,
    9, 10,
    10, 11,
    11, 11,
    0, 0,
    0, 0,
    0, 0,
    0, 0,
    0, 0,

  % k = 5
    1, 2,
    11, 3,
    11, 4,
    11, 5,
    11, 6,
    11, 7,
    11, 8,
    11, 9,
    11, 10,
    10, 11,
    11, 11,
    0, 0,
    0, 0,
    0, 0,
    0, 0,
    0, 0,

  % k = 6
    1, 2,
    3, 9,
    3, 4,
    5, 9,
    5, 6,
    7, 9,
    7, 8,
    8, 9,
    9, 9,
    0, 0,
    0, 0,
    0, 0,
    0, 0,
    0, 0,
    0, 0,
    0, 0,

  % k = 7
    1, 2,
    12, 3,
    12, 4,
    5, 12,
    5, 6,
    12, 7,
    8, 12,
    8, 9,
    12, 10,
    12, 11,
    11, 12,
    12, 12,
    0, 0,
    0, 0,
    0, 0,
    0, 0,

  % k = 8
    1, 2,
    12, 3,
    4, 12,
    4, 5,
    12, 6,
    7, 12,
    7, 8,
    12, 9,
    10, 12,
    10, 11,
    11, 12,
    12, 12,
    0, 0,
    0, 0,
    0, 0,
    0, 0,

  % k = 9
    1, 2,
    3, 11,
    3, 4,
    11, 5,
    6, 11,
    6, 7,
    11, 8,
    9, 11,
    9, 10,
    10, 11,
    11, 11,
    0, 0,
    0, 0,
    0, 0,
    0, 0,
    0, 0,

  % k = 10
    1, 2,
    3, 10,
    3, 4,
    10, 5,
    6, 10,
    6, 7,
    10, 8,
    10, 9,
    9, 10,
    10, 10,
    0, 0,
    0, 0,
    0, 0,
    0, 0,
    0, 0,
    0, 0,

  % k = 11
    1, 2,
    12, 3,
    4, 12,
    4, 5,
    12, 6,
    12, 7,
    12, 8,
    12, 9,
    12, 10,
    12, 11,
    11, 12,
    12, 12,
    0, 0,
    0, 0,
    0, 0,
    0, 0,

  % k = 12
    1, 2,
    12, 3,
    12, 4,
    12, 5,
    6, 12,
    6, 7,
    8, 12,
    8, 9,
    12, 10,
    12, 11,
    11, 12,
    12, 12,
    0, 0,
    0, 0,
    0, 0,
    0, 0,

  % k = 13
    1, 2,
    9, 3,
    9, 4,
    9, 5,
    9, 6,
    7, 9,
    7, 8,
    8, 9,
    9, 9,
    0, 0,
    0, 0,
    0, 0,
    0, 0,
    0, 0,
    0, 0,
    0, 0,

  % k = 14
    1, 2,
    3, 10,
    3, 4,
    10, 5,
    10, 6,
    10, 7,
    8, 10,
    8, 9,
    9, 10,
    10, 10,
    0, 0,
    0, 0,
    0, 0,
    0, 0,
    0, 0,
    0, 0,

  % k = 15
    1, 2,
    9, 3,
    4, 9,
    4, 5,
    6, 9,
    6, 7,
    9, 8,
    8, 9,
    9, 9,
    0, 0,
    0, 0,
    0, 0,
    0, 0,
    0, 0,
    0, 0,
    0, 0
]);
col_d_nfa = array3d(1..15, 1..16, 1..2, [
  % k = 1
    {}, {},
    {}, {},
    {}, {},
    {}, {},
    {}, {},
    {}, {},
    {}, {},
    {}, {},
    {}, {},
    {}, {},
    {}, {},
    {}, {},
    {}, {},
    {}, {},
    {}, {},
    {}, {},

  % k = 2
    {}, {},
    {}, {},
    {}, {},
    {}, {},
    {}, {},
    {}, {},
    {}, {},
    {}, {},
    {}, {},
    {}, {},
    {}, {},
    {}, {},
    {}, {},
    {}, {},
    {}, {},
    {}, {},

  % k = 3
    {}, {},
    {}, {},
    {}, {},
    {}, {},
    {}, {},
    {}, {},
    {}, {},
    {}, {},
    {}, {},
    {}, {},
    {}, {},
    {}, {},
    {}, {},
    {}, {},
    {}, {},
    {}, {},

  % k = 4
    {}, {},
    {}, {},
    {}, {},
    {}, {},
    {}, {},
    {}, {},
    {}, {},
    {}, {},
    {}, {},
    {}, {},
    {}, {},
    {}, {},
    {}, {},
    {}, {},
    {}, {},
    {}, {},

  % k = 5
    {}, {},
    {}, {},
    {}, {},
    {}, {},
    {}, {},
    {}, {},
    {}, {},
    {}, {},
    {}, {},
    {}, {},
    {}, {},
    {}, {},
    {}, {},
    {}, {},
    {}, {},
    {}, {},

  % k = 6
    {}, {},
    {}, {},
    {}, {},
    {}, {},
    {}, {},
    {}, {},
    {}, {},
    {}, {},
    {}, {},
    {}, {},
    {}, {},
    {}, {},
    {}, {},
    {}, {},
    {}, {},
    {}, {},

  % k = 7
    {}, {},
    {}, {},
    {}, {},
    {}, {},
    {}, {},
    {}, {},
    {}, {},
    {}, {},
    {}, {},
    {}, {},
    {}, {},
    {}, {},
    {}, {},
    {}, {},
    {}, {},
    {}, {},

  % k = 8
    {}, {},
    {}, {},
    {}, {},
    {}, {},
    {}, {},
    {}, {},
    {}, {},
    {}, {},
    {}, {},
    {}, {},
    {}, {},
    {}, {},
    {}, {},
    {}, {},
    {}, {},
    {}, {},

  % k = 9
    {}, {},
    {}, {},
    {}, {},
    {}, {},
    {}, {},
    {}, {},
    {}, {},
    {}, {},
    {}, {},
    {}, {},
    {}, {},
    {}, {},
    {}, {},
    {}, {},
    {}, {},
    {}, {},

  % k = 10
    {}, {},
    {}, {},
    {}, {},
    {}, {},
    {}, {},
    {}, {},
    {}, {},
    {}, {},
    {}, {},
    {}, {},
    {}, {},
    {}, {},
    {}, {},
    {}, {},
    {}, {},
    {}, {},

  % k = 11
    {}, {},
    {}, {},
    {}, {},
    {}, {},
    {}, {},
    {}, {},
    {}, {},
    {}, {},
    {}, {},
    {}, {},
    {}, {},
    {}, {},
    {}, {},
    {}, {},
    {}, {},
    {}, {},

  % k = 12
    {}, {},
    {}, {},
    {}, {},
    {}, {},
    {}, {},
    {}, {},
    {}, {},
    {}, {},
    {}, {},
    {}, {},
    {}, {},
    {}, {},
    {}, {},
    {}, {},
    {}, {},
    {}, {},

  % k = 13
    {}, {},
    {}, {},
    {}, {},
    {}, {},
    {}, {},
    {}, {},
    {}, {},
    {}, {},
    {}, {},
    {}, {},
    {}, {},
    {}, {},
    {}, {},
    {}, {},
    {}, {},
    {}, {},

  % k = 14
    {}, {},
    {}, {},
    {}, {},
    {}, {},
    {}, {},
    {}, {},
    {}, {},
    {}, {},
    {}, {},
    {}, {},
    {}, {},
    {}, {},
    {}, {},
    {}, {},
    {}, {},
    {}, {},

  % k = 15
    {}, {},
    {}, {},
    {}, {},
    {}, {},
    {}, {},
    {}, {},
    {}, {},
    {}, {},
    {}, {},
    {}, {},
    {}, {},
    {}, {},
    {}, {},
    {}, {},
    {}, {},
    {}, {}
]);
